28
15
23 27 20 24 1 19 0
18 11 13 8 23 26 10 1 24
5 1 9 21 20 4 17 24
15 4
19 17
19 12 17 7 5 4 10 22 23 18 14 25 24 20 13 16 27 11 2 1 6 15
27 4 16 5 12 9
23 5 24 13
8 27 21 22 23 3 15 5 24 12 13 10 9 19 25 18 6 0 14
17 13 23 14 19 11 24 9 25 1
4 24 7 1 9 25 3 27 19 15 12 26
13 8 18 12 21 5 11 16 7 2
5 14 25 3 13 12 2 9 0 21 22 4 17 11 20 18
9 14 27 20 8 7 25
22 8 0 14 25 5 20 17 4 10 21
